201
0 149 160 154 167 30 151 26 107 187 
92 31 199 117 104 3 171 138 198 126 
164 130 90 144 19 123 10 124 79 132 
197 16 55 97 43 192 81 168 110 45 
51 37 172 65 80 68 83 133 98 155 
189 119 47 20 127 99 180 22 96 14 
39 139 146 52 8 34 38 33 150 69 
178 85 59 77 183 57 103 100 94 140 
143 177 102 135 36 112 50 49 78 118 
113 161 108 6 17 86 71 175 131 200 
179 67 142 159 141 190 163 60 35 32 
114 120 27 91 25 7 76 186 89 24 
106 87 176 136 12 72 173 40 196 153 
62 82 185 156 121 61 2 147 145 125 
122 70 162 11 181 74 158 56 195 41 
152 44 157 4 129 166 9 182 115 18 
169 84 1 64 54 66 63 46 128 165 
73 88 58 93 75 48 13 111 194 95 
137 109 116 53 28 21 170 174 15 5 
134 105 184 23 101 193 29 188 191 148 
42 
